\ Equation counts
\     Total        E        G        L        N        X        C        B
\	0	0	0	0
\
\ Variable counts
\                  x        b        i      s1s      s2s       sc       si
\     Total     cont   binary  integer     sos1     sos2    scont     sint
\	30	30

\ Nonzero counts
\     Total    const       NL      DLL
\
\
Minimize
 obj: [ + 14.5 x_1 * x_1 + 21.5 x_1 * x_2 + 19.0 x_1 * x_3 - 10.5 x_1 * x_4 + 16.0 x_1 * x_5 - 1.5 x_1 * x_6 - 0.5 x_1 * x_7 + 17.0 x_1 * x_8 - 24.0 x_1 * x_9 - 24.5 x_1 * x_10 - 8.0 x_1 * x_11 + 5.0 x_1 * x_12 + 13.0 x_1 * x_13 + 16.0 x_1 * x_14 - 1.0 x_1 * x_15 - 15.0 x_1 * x_16 - 17.5 x_1 * x_17 + 7.5 x_1 * x_18 + 13.0 x_1 * x_19 + 23.5 x_1 * x_20 + 11.5 x_1 * x_21 + 3.0 x_1 * x_22 + 6.5 x_1 * x_23 + 8.5 x_1 * x_24 - 13.0 x_1 * x_25 - 8.0 x_1 * x_26 - 14.0 x_1 * x_27 + 18.5 x_1 * x_28 + 1.0 x_1 * x_29 + 16.5 x_1 * x_30 + 21.5 x_2 * x_1 - 14.0 x_2 * x_2 + 4.5 x_2 * x_3 - 12.5 x_2 * x_4 + 17.5 x_2 * x_5 + 6.5 x_2 * x_6 + 13.0 x_2 * x_7 - 1.5 x_2 * x_8 - 14.5 x_2 * x_9 - 3.5 x_2 * x_10 + 3.5 x_2 * x_11 - 15.5 x_2 * x_12 - 12.0 x_2 * x_13 + 23.5 x_2 * x_14 - 7.5 x_2 * x_15 - 21.0 x_2 * x_16 - 6.5 x_2 * x_17 + 16.0 x_2 * x_18 + 12.0 x_2 * x_19 - 19.5 x_2 * x_20 + 19.5 x_2 * x_21 + 7.0 x_2 * x_22 - 17.5 x_2 * x_23 + 9.0 x_2 * x_25 + 15.5 x_2 * x_26 - 18.0 x_2 * x_27 - 5.5 x_2 * x_28 + 20.0 x_2 * x_29 + 4.0 x_2 * x_30 + 19.0 x_3 * x_1 + 4.5 x_3 * x_2 + 0.5 x_3 * x_3 - 7.0 x_3 * x_4 - 3.5 x_3 * x_5 - 2.5 x_3 * x_6 + 12.5 x_3 * x_7 + 19.0 x_3 * x_8 + 12.5 x_3 * x_9 - 22.0 x_3 * x_10 + 6.5 x_3 * x_11 - 5.5 x_3 * x_12 - 9.5 x_3 * x_13 + 19.5 x_3 * x_14 - 7.0 x_3 * x_15 + 17.5 x_3 * x_16 + 3.0 x_3 * x_17 + 19.0 x_3 * x_18 + 3.5 x_3 * x_19 + 20.0 x_3 * x_20 + 4.5 x_3 * x_21 + 23.0 x_3 * x_22 + 6.5 x_3 * x_23 - 13.5 x_3 * x_24 + 20.0 x_3 * x_25 + 14.5 x_3 * x_26 + 7.0 x_3 * x_27 + 6.0 x_3 * x_28 - 21.5 x_3 * x_29 + 16.5 x_3 * x_30 - 10.5 x_4 * x_1 - 12.5 x_4 * x_2 - 7.0 x_4 * x_3 - 21.0 x_4 * x_4 - 7.0 x_4 * x_5 + 13.0 x_4 * x_6 + 14.0 x_4 * x_7 - 7.5 x_4 * x_8 + 15.5 x_4 * x_9 - 24.5 x_4 * x_10 - 16.5 x_4 * x_12 - 12.0 x_4 * x_13 + 21.0 x_4 * x_14 + 17.5 x_4 * x_15 - 17.0 x_4 * x_16 - 17.0 x_4 * x_17 - 19.5 x_4 * x_18 - 1.5 x_4 * x_19 - 6.5 x_4 * x_20 - 17.5 x_4 * x_21 + 2.5 x_4 * x_22 - 1.5 x_4 * x_23 - 11.0 x_4 * x_24 + 22.0 x_4 * x_25 + 2.5 x_4 * x_26 + 4.0 x_4 * x_27 + 7.5 x_4 * x_28 + 15.0 x_4 * x_29 + 18.5 x_4 * x_30 + 16.0 x_5 * x_1 + 17.5 x_5 * x_2 - 3.5 x_5 * x_3 - 7.0 x_5 * x_4 + 15.5 x_5 * x_5 + 14.5 x_5 * x_6 + 17.5 x_5 * x_7 + 24.5 x_5 * x_8 + 13.0 x_5 * x_9 - 15.0 x_5 * x_10 - 9.5 x_5 * x_11 - 24.5 x_5 * x_12 - 19.0 x_5 * x_13 + 13.0 x_5 * x_14 + 23.5 x_5 * x_15 + 23.0 x_5 * x_16 + 10.5 x_5 * x_17 + 19.5 x_5 * x_18 - 13.0 x_5 * x_19 - 1.0 x_5 * x_20 - 1.5 x_5 * x_21 + 16.0 x_5 * x_22 + 9.0 x_5 * x_23 - 6.0 x_5 * x_24 + 3.0 x_5 * x_25 - 7.5 x_5 * x_26 + 21.5 x_5 * x_27 - 4.5 x_5 * x_28 + 22.0 x_5 * x_29 - 10.0 x_5 * x_30 - 1.5 x_6 * x_1 + 6.5 x_6 * x_2 - 2.5 x_6 * x_3 + 13.0 x_6 * x_4 + 14.5 x_6 * x_5 + 6.5 x_6 * x_6 + 10.0 x_6 * x_7 + 21.5 x_6 * x_8 - 20.0 x_6 * x_9 - 4.5 x_6 * x_10 - 23.5 x_6 * x_11 + 23.5 x_6 * x_12 - 6.0 x_6 * x_13 - 1.0 x_6 * x_14 + 24.0 x_6 * x_15 + 23.0 x_6 * x_16 - 23.0 x_6 * x_17 + 9.0 x_6 * x_18 - 5.5 x_6 * x_19 + 2.0 x_6 * x_20 + 23.5 x_6 * x_21 - 19.0 x_6 * x_22 - 20.5 x_6 * x_23 + 13.5 x_6 * x_24 + 8.5 x_6 * x_25 + 6.5 x_6 * x_26 + 7.5 x_6 * x_27 + 23.0 x_6 * x_28 + 5.5 x_6 * x_29 - 14.5 x_6 * x_30 - 0.5 x_7 * x_1 + 13.0 x_7 * x_2 + 12.5 x_7 * x_3 + 14.0 x_7 * x_4 + 17.5 x_7 * x_5 + 10.0 x_7 * x_6 + 19.0 x_7 * x_7 + 8.0 x_7 * x_8 - 1.0 x_7 * x_9 - 13.0 x_7 * x_10 + 16.0 x_7 * x_11 + 2.5 x_7 * x_12 - 2.5 x_7 * x_13 - 15.0 x_7 * x_14 - 11.0 x_7 * x_15 - 2.5 x_7 * x_16 - 23.0 x_7 * x_17 - 2.0 x_7 * x_18 + 4.5 x_7 * x_19 + 4.5 x_7 * x_20 + 23.5 x_7 * x_21 + 8.5 x_7 * x_22 + 23.5 x_7 * x_23 - 5.5 x_7 * x_24 + 8.5 x_7 * x_25 + 20.5 x_7 * x_26 + 9.0 x_7 * x_27 - 10.0 x_7 * x_28 - 22.5 x_7 * x_29 - 4.5 x_7 * x_30 + 17.0 x_8 * x_1 - 1.5 x_8 * x_2 + 19.0 x_8 * x_3 - 7.5 x_8 * x_4 + 24.5 x_8 * x_5 + 21.5 x_8 * x_6 + 8.0 x_8 * x_7 - 9.5 x_8 * x_8 + 10.0 x_8 * x_9 - 13.5 x_8 * x_10 - 20.0 x_8 * x_11 + 0.5 x_8 * x_12 - 12.0 x_8 * x_13 - 24.0 x_8 * x_14 - 5.5 x_8 * x_15 + 6.0 x_8 * x_16 - 16.5 x_8 * x_17 + 17.0 x_8 * x_18 - 13.5 x_8 * x_19 + 5.5 x_8 * x_20 - 17.0 x_8 * x_21 + 9.5 x_8 * x_22 + 24.5 x_8 * x_23 + 17.0 x_8 * x_24 + 8.0 x_8 * x_25 - 5.0 x_8 * x_26 - 9.0 x_8 * x_27 - 11.5 x_8 * x_28 + 11.5 x_8 * x_29 + 8.0 x_8 * x_30 - 24.0 x_9 * x_1 - 14.5 x_9 * x_2 + 12.5 x_9 * x_3 + 15.5 x_9 * x_4 + 13.0 x_9 * x_5 - 20.0 x_9 * x_6 - 1.0 x_9 * x_7 + 10.0 x_9 * x_8 + 20.5 x_9 * x_9 - 14.0 x_9 * x_10 - 9.0 x_9 * x_11 + 4.5 x_9 * x_12 - 2.5 x_9 * x_13 - 4.5 x_9 * x_14 - 22.0 x_9 * x_15 - 19.5 x_9 * x_16 - 15.5 x_9 * x_17 - 23.5 x_9 * x_18 - 1.0 x_9 * x_19 + 14.5 x_9 * x_20 + 1.0 x_9 * x_21 + 5.0 x_9 * x_22 + 22.5 x_9 * x_23 + 17.5 x_9 * x_24 + 4.0 x_9 * x_25 + 1.5 x_9 * x_26 + 9.0 x_9 * x_27 - 14.5 x_9 * x_28 + 4.0 x_9 * x_29 + 6.0 x_9 * x_30 - 24.5 x_10 * x_1 - 3.5 x_10 * x_2 - 22.0 x_10 * x_3 - 24.5 x_10 * x_4 - 15.0 x_10 * x_5 - 4.5 x_10 * x_6 - 13.0 x_10 * x_7 - 13.5 x_10 * x_8 - 14.0 x_10 * x_9 + 24.5 x_10 * x_10 + 12.0 x_10 * x_11 - 6.5 x_10 * x_12 + 3.5 x_10 * x_13 - 2.5 x_10 * x_14 - 5.0 x_10 * x_15 + 2.0 x_10 * x_16 + 16.0 x_10 * x_17 + 9.0 x_10 * x_18 - 10.5 x_10 * x_19 - 2.5 x_10 * x_20 - 24.0 x_10 * x_21 - 5.5 x_10 * x_22 + 1.0 x_10 * x_23 - 24.5 x_10 * x_24 - 4.5 x_10 * x_25 - 14.5 x_10 * x_27 + 17.5 x_10 * x_28 - 13.0 x_10 * x_29 + 11.0 x_10 * x_30 - 8.0 x_11 * x_1 + 3.5 x_11 * x_2 + 6.5 x_11 * x_3 - 9.5 x_11 * x_5 - 23.5 x_11 * x_6 + 16.0 x_11 * x_7 - 20.0 x_11 * x_8 - 9.0 x_11 * x_9 + 12.0 x_11 * x_10 - 6.5 x_11 * x_12 - 5.5 x_11 * x_13 - 8.0 x_11 * x_14 + 24.5 x_11 * x_15 + 10.5 x_11 * x_16 + 20.0 x_11 * x_17 - 8.0 x_11 * x_18 + 7.5 x_11 * x_19 + 6.0 x_11 * x_21 - 5.0 x_11 * x_22 + 22.0 x_11 * x_23 - 19.5 x_11 * x_24 + 10.0 x_11 * x_25 - 19.0 x_11 * x_26 + 19.0 x_11 * x_27 + 12.0 x_11 * x_28 - 2.5 x_11 * x_29 - 11.0 x_11 * x_30 + 5.0 x_12 * x_1 - 15.5 x_12 * x_2 - 5.5 x_12 * x_3 - 16.5 x_12 * x_4 - 24.5 x_12 * x_5 + 23.5 x_12 * x_6 + 2.5 x_12 * x_7 + 0.5 x_12 * x_8 + 4.5 x_12 * x_9 - 6.5 x_12 * x_10 - 6.5 x_12 * x_11 + 23.5 x_12 * x_12 - 23.5 x_12 * x_13 + 2.5 x_12 * x_14 - 8.5 x_12 * x_15 - 24.0 x_12 * x_16 - 1.0 x_12 * x_17 - 13.0 x_12 * x_18 - 10.0 x_12 * x_19 + 17.0 x_12 * x_20 + 18.5 x_12 * x_21 - 12.0 x_12 * x_22 - 11.5 x_12 * x_23 - 10.0 x_12 * x_24 - 23.5 x_12 * x_25 + 1.5 x_12 * x_26 - 9.0 x_12 * x_27 - 8.0 x_12 * x_28 + 3.5 x_12 * x_29 + 13.0 x_12 * x_30 + 13.0 x_13 * x_1 - 12.0 x_13 * x_2 - 9.5 x_13 * x_3 - 12.0 x_13 * x_4 - 19.0 x_13 * x_5 - 6.0 x_13 * x_6 - 2.5 x_13 * x_7 - 12.0 x_13 * x_8 - 2.5 x_13 * x_9 + 3.5 x_13 * x_10 - 5.5 x_13 * x_11 - 23.5 x_13 * x_12 - 7.5 x_13 * x_13 + 7.0 x_13 * x_14 + 14.0 x_13 * x_15 + 21.5 x_13 * x_16 + 13.5 x_13 * x_17 - 4.0 x_13 * x_18 - 5.5 x_13 * x_19 - 20.0 x_13 * x_20 + 11.5 x_13 * x_21 + 12.5 x_13 * x_22 + 21.0 x_13 * x_23 - 18.5 x_13 * x_24 - 6.0 x_13 * x_25 + 8.0 x_13 * x_26 + 4.0 x_13 * x_27 + 5.0 x_13 * x_28 + 10.0 x_13 * x_29 - 22.5 x_13 * x_30 + 16.0 x_14 * x_1 + 23.5 x_14 * x_2 + 19.5 x_14 * x_3 + 21.0 x_14 * x_4 + 13.0 x_14 * x_5 - 1.0 x_14 * x_6 - 15.0 x_14 * x_7 - 24.0 x_14 * x_8 - 4.5 x_14 * x_9 - 2.5 x_14 * x_10 - 8.0 x_14 * x_11 + 2.5 x_14 * x_12 + 7.0 x_14 * x_13 - 24.0 x_14 * x_14 + 2.0 x_14 * x_15 + 12.0 x_14 * x_16 - 21.0 x_14 * x_17 - 14.5 x_14 * x_18 - 7.0 x_14 * x_19 - 6.5 x_14 * x_20 + 1.0 x_14 * x_21 - 5.5 x_14 * x_22 + 5.0 x_14 * x_23 + 8.5 x_14 * x_24 + 8.5 x_14 * x_25 + 21.5 x_14 * x_26 - 13.5 x_14 * x_27 - 17.5 x_14 * x_28 + 2.0 x_14 * x_29 - 1.5 x_14 * x_30 - 1.0 x_15 * x_1 - 7.5 x_15 * x_2 - 7.0 x_15 * x_3 + 17.5 x_15 * x_4 + 23.5 x_15 * x_5 + 24.0 x_15 * x_6 - 11.0 x_15 * x_7 - 5.5 x_15 * x_8 - 22.0 x_15 * x_9 - 5.0 x_15 * x_10 + 24.5 x_15 * x_11 - 8.5 x_15 * x_12 + 14.0 x_15 * x_13 + 2.0 x_15 * x_14 - 15.5 x_15 * x_15 - 19.5 x_15 * x_16 - 23.0 x_15 * x_17 + 19.0 x_15 * x_18 - 24.0 x_15 * x_19 + 0.5 x_15 * x_20 + 9.5 x_15 * x_21 - 15.0 x_15 * x_22 - 15.5 x_15 * x_23 - 3.0 x_15 * x_24 - 15.0 x_15 * x_25 + 17.5 x_15 * x_26 + 24.0 x_15 * x_27 + 4.0 x_15 * x_28 - 6.0 x_15 * x_29 - 20.5 x_15 * x_30 - 15.0 x_16 * x_1 - 21.0 x_16 * x_2 + 17.5 x_16 * x_3 - 17.0 x_16 * x_4 + 23.0 x_16 * x_5 + 23.0 x_16 * x_6 - 2.5 x_16 * x_7 + 6.0 x_16 * x_8 - 19.5 x_16 * x_9 + 2.0 x_16 * x_10 + 10.5 x_16 * x_11 - 24.0 x_16 * x_12 + 21.5 x_16 * x_13 + 12.0 x_16 * x_14 - 19.5 x_16 * x_15 + 9.0 x_16 * x_16 + 11.5 x_16 * x_17 - 4.0 x_16 * x_18 + 1.0 x_16 * x_19 - 15.0 x_16 * x_20 - 6.5 x_16 * x_21 + 4.5 x_16 * x_22 - 3.0 x_16 * x_23 + 8.5 x_16 * x_24 - 4.5 x_16 * x_25 + 8.0 x_16 * x_26 - 15.5 x_16 * x_27 + 21.5 x_16 * x_29 + 21.0 x_16 * x_30 - 17.5 x_17 * x_1 - 6.5 x_17 * x_2 + 3.0 x_17 * x_3 - 17.0 x_17 * x_4 + 10.5 x_17 * x_5 - 23.0 x_17 * x_6 - 23.0 x_17 * x_7 - 16.5 x_17 * x_8 - 15.5 x_17 * x_9 + 16.0 x_17 * x_10 + 20.0 x_17 * x_11 - 1.0 x_17 * x_12 + 13.5 x_17 * x_13 - 21.0 x_17 * x_14 - 23.0 x_17 * x_15 + 11.5 x_17 * x_16 + 20.5 x_17 * x_17 - 15.5 x_17 * x_18 + 16.5 x_17 * x_19 + 2.0 x_17 * x_20 - 17.5 x_17 * x_21 + 15.5 x_17 * x_22 - 12.0 x_17 * x_23 - 16.0 x_17 * x_24 + 23.0 x_17 * x_25 - 16.5 x_17 * x_26 + 21.0 x_17 * x_27 - 23.5 x_17 * x_28 + 16.0 x_17 * x_29 - 16.0 x_17 * x_30 + 7.5 x_18 * x_1 + 16.0 x_18 * x_2 + 19.0 x_18 * x_3 - 19.5 x_18 * x_4 + 19.5 x_18 * x_5 + 9.0 x_18 * x_6 - 2.0 x_18 * x_7 + 17.0 x_18 * x_8 - 23.5 x_18 * x_9 + 9.0 x_18 * x_10 - 8.0 x_18 * x_11 - 13.0 x_18 * x_12 - 4.0 x_18 * x_13 - 14.5 x_18 * x_14 + 19.0 x_18 * x_15 - 4.0 x_18 * x_16 - 15.5 x_18 * x_17 + 6.0 x_18 * x_18 - 17.5 x_18 * x_19 + 13.0 x_18 * x_20 - 5.0 x_18 * x_22 + 18.0 x_18 * x_23 - 12.5 x_18 * x_24 + 24.5 x_18 * x_25 + 22.0 x_18 * x_26 - 3.5 x_18 * x_27 - 8.0 x_18 * x_28 - 10.0 x_18 * x_30 + 13.0 x_19 * x_1 + 12.0 x_19 * x_2 + 3.5 x_19 * x_3 - 1.5 x_19 * x_4 - 13.0 x_19 * x_5 - 5.5 x_19 * x_6 + 4.5 x_19 * x_7 - 13.5 x_19 * x_8 - 1.0 x_19 * x_9 - 10.5 x_19 * x_10 + 7.5 x_19 * x_11 - 10.0 x_19 * x_12 - 5.5 x_19 * x_13 - 7.0 x_19 * x_14 - 24.0 x_19 * x_15 + 1.0 x_19 * x_16 + 16.5 x_19 * x_17 - 17.5 x_19 * x_18 - 13.0 x_19 * x_19 + 4.5 x_19 * x_20 - 13.5 x_19 * x_21 - 17.5 x_19 * x_22 + 6.5 x_19 * x_23 - 23.0 x_19 * x_24 + 10.0 x_19 * x_25 + 12.0 x_19 * x_26 - 8.0 x_19 * x_27 - 10.0 x_19 * x_28 + 1.5 x_19 * x_29 - 13.0 x_19 * x_30 + 23.5 x_20 * x_1 - 19.5 x_20 * x_2 + 20.0 x_20 * x_3 - 6.5 x_20 * x_4 - 1.0 x_20 * x_5 + 2.0 x_20 * x_6 + 4.5 x_20 * x_7 + 5.5 x_20 * x_8 + 14.5 x_20 * x_9 - 2.5 x_20 * x_10 + 17.0 x_20 * x_12 - 20.0 x_20 * x_13 - 6.5 x_20 * x_14 + 0.5 x_20 * x_15 - 15.0 x_20 * x_16 + 2.0 x_20 * x_17 + 13.0 x_20 * x_18 + 4.5 x_20 * x_19 - 17.0 x_20 * x_20 + 11.0 x_20 * x_21 - 18.0 x_20 * x_22 + 17.5 x_20 * x_23 - 2.5 x_20 * x_24 + 3.0 x_20 * x_25 - 15.5 x_20 * x_26 + 5.0 x_20 * x_27 + 0.5 x_20 * x_28 + 1.0 x_20 * x_29 - 12.5 x_20 * x_30 + 11.5 x_21 * x_1 + 19.5 x_21 * x_2 + 4.5 x_21 * x_3 - 17.5 x_21 * x_4 - 1.5 x_21 * x_5 + 23.5 x_21 * x_6 + 23.5 x_21 * x_7 - 17.0 x_21 * x_8 + 1.0 x_21 * x_9 - 24.0 x_21 * x_10 + 6.0 x_21 * x_11 + 18.5 x_21 * x_12 + 11.5 x_21 * x_13 + 1.0 x_21 * x_14 + 9.5 x_21 * x_15 - 6.5 x_21 * x_16 - 17.5 x_21 * x_17 - 13.5 x_21 * x_19 + 11.0 x_21 * x_20 + 11.5 x_21 * x_21 + 17.5 x_21 * x_22 - 0.5 x_21 * x_23 + 19.5 x_21 * x_24 - 1.5 x_21 * x_25 + 6.0 x_21 * x_26 + 1.0 x_21 * x_27 + 14.5 x_21 * x_28 + 10.5 x_21 * x_29 - 22.0 x_21 * x_30 + 3.0 x_22 * x_1 + 7.0 x_22 * x_2 + 23.0 x_22 * x_3 + 2.5 x_22 * x_4 + 16.0 x_22 * x_5 - 19.0 x_22 * x_6 + 8.5 x_22 * x_7 + 9.5 x_22 * x_8 + 5.0 x_22 * x_9 - 5.5 x_22 * x_10 - 5.0 x_22 * x_11 - 12.0 x_22 * x_12 + 12.5 x_22 * x_13 - 5.5 x_22 * x_14 - 15.0 x_22 * x_15 + 4.5 x_22 * x_16 + 15.5 x_22 * x_17 - 5.0 x_22 * x_18 - 17.5 x_22 * x_19 - 18.0 x_22 * x_20 + 17.5 x_22 * x_21 + 18.0 x_22 * x_22 - 16.0 x_22 * x_23 + 19.5 x_22 * x_24 - 17.5 x_22 * x_25 - 22.5 x_22 * x_26 - 2.0 x_22 * x_27 - 13.0 x_22 * x_28 - 5.0 x_22 * x_29 + 6.5 x_23 * x_1 - 17.5 x_23 * x_2 + 6.5 x_23 * x_3 - 1.5 x_23 * x_4 + 9.0 x_23 * x_5 - 20.5 x_23 * x_6 + 23.5 x_23 * x_7 + 24.5 x_23 * x_8 + 22.5 x_23 * x_9 + 1.0 x_23 * x_10 + 22.0 x_23 * x_11 - 11.5 x_23 * x_12 + 21.0 x_23 * x_13 + 5.0 x_23 * x_14 - 15.5 x_23 * x_15 - 3.0 x_23 * x_16 - 12.0 x_23 * x_17 + 18.0 x_23 * x_18 + 6.5 x_23 * x_19 + 17.5 x_23 * x_20 - 0.5 x_23 * x_21 - 16.0 x_23 * x_22 + 11.5 x_23 * x_23 - 19.0 x_23 * x_24 - 18.5 x_23 * x_25 + 22.0 x_23 * x_26 - 10.0 x_23 * x_27 - 15.5 x_23 * x_28 + 6.0 x_23 * x_29 - 19.0 x_23 * x_30 + 8.5 x_24 * x_1 - 13.5 x_24 * x_3 - 11.0 x_24 * x_4 - 6.0 x_24 * x_5 + 13.5 x_24 * x_6 - 5.5 x_24 * x_7 + 17.0 x_24 * x_8 + 17.5 x_24 * x_9 - 24.5 x_24 * x_10 - 19.5 x_24 * x_11 - 10.0 x_24 * x_12 - 18.5 x_24 * x_13 + 8.5 x_24 * x_14 - 3.0 x_24 * x_15 + 8.5 x_24 * x_16 - 16.0 x_24 * x_17 - 12.5 x_24 * x_18 - 23.0 x_24 * x_19 - 2.5 x_24 * x_20 + 19.5 x_24 * x_21 + 19.5 x_24 * x_22 - 19.0 x_24 * x_23 + 5.0 x_24 * x_24 - 6.5 x_24 * x_25 - 24.0 x_24 * x_26 + 11.5 x_24 * x_27 - 6.5 x_24 * x_28 - 1.0 x_24 * x_29 + 5.0 x_24 * x_30 - 13.0 x_25 * x_1 + 9.0 x_25 * x_2 + 20.0 x_25 * x_3 + 22.0 x_25 * x_4 + 3.0 x_25 * x_5 + 8.5 x_25 * x_6 + 8.5 x_25 * x_7 + 8.0 x_25 * x_8 + 4.0 x_25 * x_9 - 4.5 x_25 * x_10 + 10.0 x_25 * x_11 - 23.5 x_25 * x_12 - 6.0 x_25 * x_13 + 8.5 x_25 * x_14 - 15.0 x_25 * x_15 - 4.5 x_25 * x_16 + 23.0 x_25 * x_17 + 24.5 x_25 * x_18 + 10.0 x_25 * x_19 + 3.0 x_25 * x_20 - 1.5 x_25 * x_21 - 17.5 x_25 * x_22 - 18.5 x_25 * x_23 - 6.5 x_25 * x_24 - 12.5 x_25 * x_25 - 22.0 x_25 * x_26 + 10.0 x_25 * x_27 - 12.5 x_25 * x_28 + 21.5 x_25 * x_29 + 15.0 x_25 * x_30 - 8.0 x_26 * x_1 + 15.5 x_26 * x_2 + 14.5 x_26 * x_3 + 2.5 x_26 * x_4 - 7.5 x_26 * x_5 + 6.5 x_26 * x_6 + 20.5 x_26 * x_7 - 5.0 x_26 * x_8 + 1.5 x_26 * x_9 - 19.0 x_26 * x_11 + 1.5 x_26 * x_12 + 8.0 x_26 * x_13 + 21.5 x_26 * x_14 + 17.5 x_26 * x_15 + 8.0 x_26 * x_16 - 16.5 x_26 * x_17 + 22.0 x_26 * x_18 + 12.0 x_26 * x_19 - 15.5 x_26 * x_20 + 6.0 x_26 * x_21 - 22.5 x_26 * x_22 + 22.0 x_26 * x_23 - 24.0 x_26 * x_24 - 22.0 x_26 * x_25 + 16.5 x_26 * x_26 - 19.5 x_26 * x_27 + 22.5 x_26 * x_28 - 19.0 x_26 * x_29 + 15.0 x_26 * x_30 - 14.0 x_27 * x_1 - 18.0 x_27 * x_2 + 7.0 x_27 * x_3 + 4.0 x_27 * x_4 + 21.5 x_27 * x_5 + 7.5 x_27 * x_6 + 9.0 x_27 * x_7 - 9.0 x_27 * x_8 + 9.0 x_27 * x_9 - 14.5 x_27 * x_10 + 19.0 x_27 * x_11 - 9.0 x_27 * x_12 + 4.0 x_27 * x_13 - 13.5 x_27 * x_14 + 24.0 x_27 * x_15 - 15.5 x_27 * x_16 + 21.0 x_27 * x_17 - 3.5 x_27 * x_18 - 8.0 x_27 * x_19 + 5.0 x_27 * x_20 + 1.0 x_27 * x_21 - 2.0 x_27 * x_22 - 10.0 x_27 * x_23 + 11.5 x_27 * x_24 + 10.0 x_27 * x_25 - 19.5 x_27 * x_26 + 16.5 x_27 * x_27 - 18.5 x_27 * x_28 + 7.5 x_27 * x_29 + 16.5 x_27 * x_30 + 18.5 x_28 * x_1 - 5.5 x_28 * x_2 + 6.0 x_28 * x_3 + 7.5 x_28 * x_4 - 4.5 x_28 * x_5 + 23.0 x_28 * x_6 - 10.0 x_28 * x_7 - 11.5 x_28 * x_8 - 14.5 x_28 * x_9 + 17.5 x_28 * x_10 + 12.0 x_28 * x_11 - 8.0 x_28 * x_12 + 5.0 x_28 * x_13 - 17.5 x_28 * x_14 + 4.0 x_28 * x_15 - 23.5 x_28 * x_17 - 8.0 x_28 * x_18 - 10.0 x_28 * x_19 + 0.5 x_28 * x_20 + 14.5 x_28 * x_21 - 13.0 x_28 * x_22 - 15.5 x_28 * x_23 - 6.5 x_28 * x_24 - 12.5 x_28 * x_25 + 22.5 x_28 * x_26 - 18.5 x_28 * x_27 + 3.0 x_28 * x_28 - 3.0 x_28 * x_29 - 12.5 x_28 * x_30 + 1.0 x_29 * x_1 + 20.0 x_29 * x_2 - 21.5 x_29 * x_3 + 15.0 x_29 * x_4 + 22.0 x_29 * x_5 + 5.5 x_29 * x_6 - 22.5 x_29 * x_7 + 11.5 x_29 * x_8 + 4.0 x_29 * x_9 - 13.0 x_29 * x_10 - 2.5 x_29 * x_11 + 3.5 x_29 * x_12 + 10.0 x_29 * x_13 + 2.0 x_29 * x_14 - 6.0 x_29 * x_15 + 21.5 x_29 * x_16 + 16.0 x_29 * x_17 + 1.5 x_29 * x_19 + 1.0 x_29 * x_20 + 10.5 x_29 * x_21 - 5.0 x_29 * x_22 + 6.0 x_29 * x_23 - 1.0 x_29 * x_24 + 21.5 x_29 * x_25 - 19.0 x_29 * x_26 + 7.5 x_29 * x_27 - 3.0 x_29 * x_28 - 19.0 x_29 * x_29 + 14.0 x_29 * x_30 + 16.5 x_30 * x_1 + 4.0 x_30 * x_2 + 16.5 x_30 * x_3 + 18.5 x_30 * x_4 - 10.0 x_30 * x_5 - 14.5 x_30 * x_6 - 4.5 x_30 * x_7 + 8.0 x_30 * x_8 + 6.0 x_30 * x_9 + 11.0 x_30 * x_10 - 11.0 x_30 * x_11 + 13.0 x_30 * x_12 - 22.5 x_30 * x_13 - 1.5 x_30 * x_14 - 20.5 x_30 * x_15 + 21.0 x_30 * x_16 - 16.0 x_30 * x_17 - 10.0 x_30 * x_18 - 13.0 x_30 * x_19 - 12.5 x_30 * x_20 - 22.0 x_30 * x_21 - 19.0 x_30 * x_23 + 5.0 x_30 * x_24 + 15.0 x_30 * x_25 + 15.0 x_30 * x_26 + 16.5 x_30 * x_27 - 12.5 x_30 * x_28 + 14.0 x_30 * x_29 - 10.0 x_30 * x_30 ] - 13.0 x_1 + 27.0 x_2 + 12.0 x_3 + 17.0 x_4 - 25.0 x_5 + 33.0 x_6 - 16.0 x_7 + 11.0 x_8 - 31.0 x_9 - 36.0 x_10 + 44.0 x_11 + 17.0 x_12 + 11.0 x_13 - 38.0 x_14 + 17.0 x_15 + 3.0 x_16 - 3.0 x_17 - 3.0 x_18 - 22.0 x_19 + 45.0 x_20 + 1.0 x_21 - 9.0 x_22 + 29.0 x_23 - 40.0 x_24 - 14.0 x_25 - 25.0 x_26 - 43.0 x_27 + 36.0 x_28 + 21.0 x_29 - 11.0 x_30

Subject To

Bounds
 x_1 <= 1.0
 x_2 <= 1.0
 x_3 <= 1.0
 x_4 <= 1.0
 x_5 <= 1.0
 x_6 <= 1.0
 x_7 <= 1.0
 x_8 <= 1.0
 x_9 <= 1.0
 x_10 <= 1.0
 x_11 <= 1.0
 x_12 <= 1.0
 x_13 <= 1.0
 x_14 <= 1.0
 x_15 <= 1.0
 x_16 <= 1.0
 x_17 <= 1.0
 x_18 <= 1.0
 x_19 <= 1.0
 x_20 <= 1.0
 x_21 <= 1.0
 x_22 <= 1.0
 x_23 <= 1.0
 x_24 <= 1.0
 x_25 <= 1.0
 x_26 <= 1.0
 x_27 <= 1.0
 x_28 <= 1.0
 x_29 <= 1.0
 x_30 <= 1.0

End